Sun 20 May 09:13:07 CEST 2018
CPXPARAM_TimeLimit                               45
CPXPARAM_Threads                                 4
CPXPARAM_MIP_Strategy_CallbackReducedLP          0
Tried aggregator 4 times.
MIP Presolve eliminated 5722 rows and 3943 columns.
MIP Presolve modified 8108 coefficients.
Aggregator did 14562 substitutions.
Reduced MIP has 23946 rows, 19186 columns, and 56392 nonzeros.
Reduced MIP has 16708 binaries, 12 generals, 0 SOSs, and 2760 indicators.
Presolve time = 0.29 sec. (730.12 ticks)
Found incumbent of value 31.000000 after 0.45 sec. (899.23 ticks)
Probing time = 0.50 sec. (147.16 ticks)
Tried aggregator 3 times.
Aggregator did 10762 substitutions.
Reduced MIP has 13184 rows, 8424 columns, and 34868 nonzeros.
Reduced MIP has 5946 binaries, 2478 generals, 0 SOSs, and 2760 indicators.
Presolve time = 0.07 sec. (88.09 ticks)
Probing time = 0.16 sec. (90.01 ticks)
Tried aggregator 1 time.
Reduced MIP has 13184 rows, 8424 columns, and 34868 nonzeros.
Reduced MIP has 5946 binaries, 2478 generals, 0 SOSs, and 2760 indicators.
Presolve time = 0.04 sec. (35.23 ticks)
Probing time = 0.01 sec. (7.35 ticks)
Clique table members: 353615.
MIP emphasis: balance optimality and feasibility.
MIP search method: dynamic search.
Parallel mode: deterministic, using up to 4 threads.
Root relaxation solution time = 0.15 sec. (147.32 ticks)

        Nodes                                         Cuts/
   Node  Left     Objective  IInf  Best Integer    Best Bound    ItCnt     Gap

*     0+    0                           31.0000        0.0000           100.00%
      0     0        0.0000  4246       31.0000        0.0000     1187  100.00%
*     0+    0                           14.0000        0.0000           100.00%
      0     0        0.0000  3129       14.0000 Cliques: 3396     3054   64.29%

Clique cuts applied:  1276

Root node processing (before b&c):
  Real time             =   50.59 sec. (25398.43 ticks)
Parallel b&c, 4 threads:
  Real time             =    0.00 sec. (0.00 ticks)
  Sync time (average)   =    0.00 sec.
  Wait time (average)   =    0.00 sec.
                          ------------
Total (root+branch&cut) =   50.59 sec. (25398.43 ticks)
   | W
 L | 0  1  2  3  4  5 
---------------------
 0 | 3 11 11 11 11 11 
 1 | 3 11 11 11 11 11 
 2 | 6 11 11 11 11 11 
 3 | 6 11 11 11 11 11 
 4 | 6 11 11 11 11 11 
 5 | 4  1  9  9  8  8 
 6 | 4  5  9  9  8  8 
 7 | .  5  9  9  8  8 
 8 | .  7  7  7  .  . 
 9 | . 10 10 10 10 10 
10 | . 10 10 10 10 10 
11 | . 10 10 10 10 10 
12 | 2 10 10 10 10 10 
13 | 2 10 10 10 10 10 
14 | .  .  .  .  .  . 
15 | .  .  .  .  .  . 
16 | .  .  .  .  .  . 
17 | .  .  .  .  .  . 
18 | .  .  .  .  .  . 
19 | .  .  .  .  .  . 
20 | .  .  .  .  .  . 
21 | .  .  .  .  .  . 
22 | .  .  .  .  .  . 
23 | .  .  .  .  .  . 
24 | .  .  .  .  .  . 
25 | .  .  .  .  .  . 
26 | .  .  .  .  .  . 
27 | .  .  .  .  .  . 
28 | .  .  .  .  .  . 
29 | .  .  .  .  .  . 
30 | .  .  .  .  .  . 

Boxes' corners:       (w,l)
    Box  1 is at 
        top left     (1,5)
        bottom right (1,5)

    Box  2 is at 
        top left     (0,12)
        bottom right (0,13)

    Box  3 is at 
        top left     (0,0)
        bottom right (0,1)

    Box  4 is at 
        top left     (0,5)
        bottom right (0,6)

    Box  5 is at 
        top left     (1,6)
        bottom right (1,7)

    Box  6 is at 
        top left     (0,2)
        bottom right (0,4)

    Box  7 is at 
        top left     (1,8)
        bottom right (3,8)

    Box  8 is at 
        top left     (4,5)
        bottom right (5,7)

    Box  9 is at 
        top left     (2,5)
        bottom right (3,7)

    Box 10 is at 
        top left     (1,9)
        bottom right (5,13)

    Box 11 is at 
        top left     (1,0)
        bottom right (5,4)

    Roll length used: 14
In 193.54 seconds
